n_res = 4;
rc = [ 0, 0, 0, 0 ];
n_tasks = 30;
d = [ 2, 8, 6, 4, 2, 5, 7, 4, 10, 5, 1, 6, 5, 3, 10, 9, 5, 9, 5, 7, 1, 5, 5, 3, 8, 3, 1, 1, 4, 4 ];
rr = [| 0, 0, 0, 0, 0, 0, 0, 0, 0, 0, 0, 0, 0, 0, 0, 0, 0, 0, 0, 0, 0, 0, 0, 0, 0, 0, 0, 0, 0, 0
      | 0, 0, 0, 0, 0, 0, 0, 0, 0, 0, 0, 0, 0, 0, 0, 0, 0, 0, 0, 0, 0, 0, 0, 0, 0, 0, 0, 0, 0, 0
      | 0, 0, 0, 0, 0, 0, 0, 0, 0, 0, 0, 0, 0, 0, 0, 0, 0, 0, 0, 0, 0, 0, 0, 0, 0, 0, 0, 0, 0, 0
      | 0, 0, 0, 0, 0, 0, 0, 0, 0, 0, 0, 0, 0, 0, 0, 0, 0, 0, 0, 0, 0, 0, 0, 0, 0, 0, 0, 0, 0, 0 |];
suc = [ { 7, 8, 22 },
       { 4 },
       { 5, 6, 9 },
       { 10, 12, 15 },
       { 17, 18 },
       { 21 },
       { 10 },
       { 20 },
       { 11, 13, 14 },
       { 19 },
       { 15, 25 },
       { 24, 26, 27 },
       { 16, 30 },
       { 19 },
       { 22, 28 },
       { 17 },
       { 23 },
       { 22 },
       { 20 },
       { 24 },
       { 25 },
       { 26, 29 },
       { 24 },
       { 29 },
       { 27 },
       { 30 },
       { 28 },
       {  },
       {  },
       {  } ];
